
******************************************************************************
This program contains Ipopt, a library for large-scale nonlinear optimization.
 Ipopt is released as open source code under the Eclipse Public License (EPL).
         For more information visit http://projects.coin-or.org/Ipopt
******************************************************************************

This is Ipopt version 3.12.6, running with linear solver ma57.

Number of nonzeros in equality constraint Jacobian...:    17500
Number of nonzeros in inequality constraint Jacobian.:        0
Number of nonzeros in Lagrangian Hessian.............:    22505

Total number of variables............................:     5005
                     variables with only lower bounds:        0
                variables with lower and upper bounds:        0
                     variables with only upper bounds:        0
Total number of equality constraints.................:     2500
Total number of inequality constraints...............:        0
        inequality constraints with only lower bounds:        0
   inequality constraints with lower and upper bounds:        0
        inequality constraints with only upper bounds:        0

iter    objective    inf_pr   inf_du lg(mu)  ||d||  lg(rg) alpha_du alpha_pr  ls
   0  0.0000000e+00 7.58e+00 0.00e+00  -1.0 0.00e+00    -  0.00e+00 0.00e+00   0
   1  3.0751869e+01 1.43e+00 9.40e+01  -1.0 1.03e+00    -  1.00e+00 1.00e+00h  1
   2  1.7054949e+02 2.11e+00 3.37e+02  -1.0 1.11e+00    -  1.00e+00 1.00e+00h  1
   3  1.0165902e+02 3.87e-01 5.88e+01  -1.0 4.76e-01   0.0 1.00e+00 1.00e+00f  1
   4  9.5645252e+01 3.94e-02 7.53e-01  -1.0 1.94e-01  -0.5 1.00e+00 1.00e+00f  1
   5  9.4869397e+01 1.94e-03 1.20e-01  -1.7 4.80e-02  -0.1 1.00e+00 1.00e+00h  1
   6  9.4805993e+01 1.37e-02 4.57e-02  -2.5 1.17e-01  -0.5 1.00e+00 1.00e+00H  1
   7  9.4752484e+01 5.75e-02 2.00e-02  -2.5 1.92e-01  -1.0 1.00e+00 1.00e+00H  1
   8  9.4774964e+01 3.44e-02 2.50e-02  -2.5 8.43e-01  -1.5 1.00e+00 1.25e-01h  4
   9  9.4829080e+01 1.08e-02 1.29e-02  -2.5 8.77e-02    -  1.00e+00 1.00e+00h  1
iter    objective    inf_pr   inf_du lg(mu)  ||d||  lg(rg) alpha_du alpha_pr  ls
  10  9.4815325e+01 4.21e-04 7.00e-04  -3.8 1.72e-02    -  1.00e+00 1.00e+00h  1
  11  9.4814653e+01 2.35e-06 3.61e-06  -5.7 1.24e-03    -  1.00e+00 1.00e+00h  1
  12  9.4814650e+01 1.40e-10 1.72e-10  -8.6 9.50e-06    -  1.00e+00 1.00e+00h  1

Number of Iterations....: 12

                                   (scaled)                 (unscaled)
Objective...............:   9.4814649634774540e+01    9.4814649634774540e+01
Dual infeasibility......:   1.7171264410364984e-10    1.7171264410364984e-10
Constraint violation....:   1.4014266976709530e-10    1.4014266976709530e-10
Complementarity.........:   0.0000000000000000e+00    0.0000000000000000e+00
Overall NLP error.......:   1.7171264410364984e-10    1.7171264410364984e-10


Number of objective function evaluations             = 19
Number of objective gradient evaluations             = 13
Number of equality constraint evaluations            = 19
Number of inequality constraint evaluations          = 0
Number of equality constraint Jacobian evaluations   = 13
Number of inequality constraint Jacobian evaluations = 0
Number of Lagrangian Hessian evaluations             = 12
Total CPU secs in IPOPT (w/o function evaluations)   =      0.050
Total CPU secs in NLP function evaluations           =      0.040

EXIT: Optimal Solution Found.

************************ CUTEst statistics ************************


 Package used            :  IPOPT
 Problem                 :  ORTHREGC  
 # variables             =            5005
 # constraints           =            2500
 # objective functions   =        0.3300000E+02
 # objective gradients   =        0.1400000E+02
 # objective Hessians    =        0.1300000E+02
 # Hessian-vector prdct  =        0.0000000E+00
 # constraints functions =        0.3400000E+02
 # constraints gradients =        0.1500000E+02
 # constraints Hessians  =        0.1300000E+02
 Exit code               =               0
 Final f                 =   0.9481465E+02
 Set up time             =            0.35 seconds
 Solve time              =            0.09 seconds


******************************************************************

System Time =       0.0920000002 s.
